11,1,5,1,6,1,3,1,4,1,12,1,2,1,9,1,10,1,8,1,1,1;7,1,11,2,6,2,7,2,3,2,4,2,12,2,2,2,9,2,10,2,8,2,1,2;11,3,6,3,5,3,7,3,3,3,4,3,12,3,2,3,9,3,10,3,8,3,1,3,9,5;11,4,6,4,5,4,7,4,3,4,4,4,12,4,2,4,10,4,9,4,8,4,1,4;5,2,11,5,6,5,7,5,5,5,3,5,4,5,12,5,2,5,10,5,8,5,1,5;
